c Generated map
c Size: 13 * 13, weights in range: 1 to 10, walls: True, with ratio 0.1
c dim 2 of 4
c
p sp 169 250
c graph contains 169 nodes and 250 arcs
c
a 1 14 7
a 14 1 7
a 1 2 8
a 2 1 8
a 2 15 2
a 15 2 2
a 2 3 9
a 3 2 9
a 3 16 1
a 16 3 1
a 3 4 6
a 4 3 6
a 4 17 4
a 17 4 4
a 4 5 2
a 5 4 2
a 5 18 1
a 18 5 1
a 5 6 8
a 6 5 8
a 6 19 7
a 19 6 7
a 6 7 10
a 7 6 10
a 7 20 2
a 20 7 2
a 7 8 4
a 8 7 4
a 8 21 2
a 21 8 2
a 10 23 8
a 23 10 8
a 10 11 2
a 11 10 2
a 11 24 10
a 24 11 10
a 11 12 9
a 12 11 9
a 12 13 7
a 13 12 7
a 14 27 5
a 27 14 5
a 14 15 7
a 15 14 7
a 15 28 9
a 28 15 9
a 15 16 1
a 16 15 1
a 16 29 9
a 29 16 9
a 16 17 2
a 17 16 2
a 17 30 2
a 30 17 2
a 17 18 4
a 18 17 4
a 18 31 5
a 31 18 5
a 18 19 3
a 19 18 3
a 19 32 3
a 32 19 3
a 19 20 9
a 20 19 9
a 20 33 8
a 33 20 8
a 20 21 1
a 21 20 1
a 21 34 9
a 34 21 9
a 21 22 2
a 22 21 2
a 22 35 8
a 35 22 8
a 22 23 2
a 23 22 2
a 23 36 4
a 36 23 4
a 23 24 4
a 24 23 4
a 24 37 9
a 37 24 9
a 27 40 9
a 40 27 9
a 27 28 7
a 28 27 7
a 28 41 5
a 41 28 5
a 28 29 5
a 29 28 5
a 29 42 6
a 42 29 6
a 29 30 2
a 30 29 2
a 30 43 8
a 43 30 8
a 30 31 8
a 31 30 8
a 31 44 7
a 44 31 7
a 31 32 2
a 32 31 2
a 32 45 5
a 45 32 5
a 32 33 9
a 33 32 9
a 33 46 1
a 46 33 1
a 33 34 7
a 34 33 7
a 34 47 10
a 47 34 10
a 34 35 4
a 35 34 4
a 35 48 4
a 48 35 4
a 35 36 2
a 36 35 2
a 36 49 4
a 49 36 4
a 36 37 6
a 37 36 6
a 37 50 2
a 50 37 2
a 37 38 7
a 38 37 7
a 38 51 4
a 51 38 4
a 38 39 5
a 39 38 5
a 39 52 9
a 52 39 9
a 40 53 5
a 53 40 5
a 40 41 3
a 41 40 3
a 41 54 4
a 54 41 4
a 41 42 3
a 42 41 3
a 42 55 1
a 55 42 1
a 42 43 5
a 43 42 5
a 43 56 4
a 56 43 4
a 43 44 3
a 44 43 3
a 44 57 7
a 57 44 7
a 44 45 6
a 45 44 6
a 45 58 5
a 58 45 5
a 45 46 1
a 46 45 1
a 46 59 7
a 59 46 7
a 46 47 5
a 47 46 5
a 47 60 6
a 60 47 6
a 47 48 5
a 48 47 5
a 48 61 3
a 61 48 3
a 48 49 4
a 49 48 4
a 49 62 1
a 62 49 1
a 49 50 4
a 50 49 4
a 50 63 2
a 63 50 2
a 50 51 1
a 51 50 1
a 51 64 8
a 64 51 8
a 51 52 8
a 52 51 8
a 53 66 1
a 66 53 1
a 53 54 6
a 54 53 6
a 54 67 6
a 67 54 6
a 54 55 10
a 55 54 10
a 55 68 2
a 68 55 2
a 55 56 7
a 56 55 7
a 56 69 5
a 69 56 5
a 56 57 4
a 57 56 4
a 57 70 9
a 70 57 9
a 57 58 7
a 58 57 7
a 58 71 10
a 71 58 10
a 58 59 2
a 59 58 2
a 59 72 1
a 72 59 1
a 59 60 2
a 60 59 2
a 60 73 5
a 73 60 5
a 60 61 1
a 61 60 1
a 61 74 3
a 74 61 3
a 61 62 9
a 62 61 9
a 62 75 10
a 75 62 10
a 62 63 8
a 63 62 8
a 63 76 9
a 76 63 9
a 63 64 1
a 64 63 1
a 66 79 10
a 79 66 10
a 66 67 1
a 67 66 1
a 67 68 3
a 68 67 3
a 68 81 8
a 81 68 8
a 68 69 6
a 69 68 6
a 69 70 8
a 70 69 8
a 70 83 4
a 83 70 4
a 70 71 1
a 71 70 1
a 71 72 8
a 72 71 8
a 72 85 5
a 85 72 5
a 72 73 1
a 73 72 1
a 73 86 7
a 86 73 7
a 73 74 9
a 74 73 9
a 74 87 8
a 87 74 8
a 74 75 2
a 75 74 2
a 75 88 9
a 88 75 9
a 75 76 4
a 76 75 4
a 78 91 2
a 91 78 2
a 79 92 9
a 92 79 9
a 81 94 8
a 94 81 8
a 83 96 6
a 96 83 6
a 85 98 1
a 98 85 1
a 85 86 3
a 86 85 3
a 86 99 10
a 99 86 10
a 86 87 10
a 87 86 10
a 87 100 9
a 100 87 9
a 87 88 5
a 88 87 5
a 88 101 6
a 101 88 6
a 90 103 2
a 103 90 2
a 90 91 9
a 91 90 9
a 91 104 10
a 104 91 10
a 92 105 2
a 105 92 2
a 92 93 5
a 93 92 5
a 93 106 6
a 106 93 6
a 93 94 8
a 94 93 8
a 94 107 1
a 107 94 1
a 94 95 1
a 95 94 1
a 95 108 7
a 108 95 7
a 95 96 2
a 96 95 2
a 96 109 6
a 109 96 6
a 96 97 10
a 97 96 10
a 97 98 2
a 98 97 2
a 98 111 8
a 111 98 8
a 98 99 1
a 99 98 1
a 99 112 6
a 112 99 6
a 99 100 10
a 100 99 10
a 100 101 3
a 101 100 3
a 101 114 2
a 114 101 2
a 101 102 1
a 102 101 1
a 102 115 1
a 115 102 1
a 102 103 3
a 103 102 3
a 103 116 10
a 116 103 10
a 103 104 2
a 104 103 2
a 104 117 8
a 117 104 8
a 105 118 8
a 118 105 8
a 105 106 1
a 106 105 1
a 106 119 4
a 119 106 4
a 106 107 1
a 107 106 1
a 107 120 10
a 120 107 10
a 107 108 4
a 108 107 4
a 108 121 4
a 121 108 4
a 108 109 10
a 109 108 10
a 111 124 4
a 124 111 4
a 111 112 3
a 112 111 3
a 112 125 9
a 125 112 9
a 114 127 1
a 127 114 1
a 114 115 8
a 115 114 8
a 115 128 3
a 128 115 3
a 115 116 3
a 116 115 3
a 116 129 1
a 129 116 1
a 116 117 6
a 117 116 6
a 117 130 5
a 130 117 5
a 118 131 7
a 131 118 7
a 118 119 8
a 119 118 8
a 119 120 3
a 120 119 3
a 120 133 8
a 133 120 8
a 120 121 5
a 121 120 5
a 121 134 9
a 134 121 9
a 123 136 1
a 136 123 1
a 123 124 9
a 124 123 9
a 124 137 9
a 137 124 9
a 124 125 7
a 125 124 7
a 125 138 10
a 138 125 10
a 125 126 10
a 126 125 10
a 126 139 6
a 139 126 6
a 126 127 5
a 127 126 5
a 127 128 3
a 128 127 3
a 128 141 9
a 141 128 9
a 128 129 6
a 129 128 6
a 129 142 7
a 142 129 7
a 129 130 10
a 130 129 10
a 130 143 8
a 143 130 8
a 131 144 6
a 144 131 6
a 133 146 8
a 146 133 8
a 133 134 10
a 134 133 10
a 134 147 1
a 147 134 1
a 134 135 3
a 135 134 3
a 135 148 1
a 148 135 1
a 135 136 5
a 136 135 5
a 136 149 6
a 149 136 6
a 136 137 4
a 137 136 4
a 137 150 4
a 150 137 4
a 137 138 3
a 138 137 3
a 138 151 2
a 151 138 2
a 138 139 7
a 139 138 7
a 141 154 7
a 154 141 7
a 141 142 5
a 142 141 5
a 142 155 10
a 155 142 10
a 142 143 9
a 143 142 9
a 143 156 3
a 156 143 3
a 144 157 7
a 157 144 7
a 146 159 1
a 159 146 1
a 146 147 1
a 147 146 1
a 147 160 4
a 160 147 4
a 147 148 7
a 148 147 7
a 148 161 2
a 161 148 2
a 148 149 2
a 149 148 2
a 149 162 4
a 162 149 4
a 149 150 1
a 150 149 1
a 150 163 5
a 163 150 5
a 150 151 7
a 151 150 7
a 151 164 10
a 164 151 10
a 153 166 10
a 166 153 10
a 153 154 9
a 154 153 9
a 154 155 8
a 155 154 8
a 155 168 1
a 168 155 1
a 155 156 3
a 156 155 3
a 156 169 4
a 169 156 4
a 157 158 1
a 158 157 1
a 158 159 4
a 159 158 4
a 159 160 1
a 160 159 1
a 160 161 2
a 161 160 2
a 161 162 1
a 162 161 1
a 162 163 9
a 163 162 9
a 163 164 8
a 164 163 8
a 164 165 4
a 165 164 4
a 165 166 10
a 166 165 10
a 168 169 5
a 169 168 5
